p cnf 315 2711
1 2 3 4 5 6 7 8 9 0
10 11 12 13 14 15 16 17 18 0
19 20 21 22 23 24 25 26 27 0
28 29 30 31 32 33 34 35 36 0
37 38 39 40 41 42 43 44 45 0
46 47 48 49 50 51 52 53 54 0
55 56 57 58 59 60 61 62 63 0
64 65 66 67 68 69 70 71 72 0
73 74 75 76 77 78 79 80 81 0
82 83 84 85 86 87 88 89 90 0
91 92 93 94 95 96 97 98 99 0
100 101 102 103 104 105 106 107 108 0
109 110 111 112 113 114 115 116 117 0
118 119 120 121 122 123 124 125 126 0
127 128 129 130 131 132 133 134 135 0
136 137 138 139 140 141 142 143 144 0
145 146 147 148 149 150 151 152 153 0
154 155 156 157 158 159 160 161 162 0
163 164 165 166 167 168 169 170 171 0
172 173 174 175 176 177 178 179 180 0
181 182 183 184 185 186 187 188 189 0
190 191 192 193 194 195 196 197 198 0
199 200 201 202 203 204 205 206 207 0
208 209 210 211 212 213 214 215 216 0
217 218 219 220 221 222 223 224 225 0
226 227 228 229 230 231 232 233 234 0
235 236 237 238 239 240 241 242 243 0
244 245 246 247 248 249 250 251 252 0
253 254 255 256 257 258 259 260 261 0
262 263 264 265 266 267 268 269 270 0
271 272 273 274 275 276 277 278 279 0
280 281 282 283 284 285 286 287 288 0
289 290 291 292 293 294 295 296 297 0
298 299 300 301 302 303 304 305 306 0
307 308 309 310 311 312 313 314 315 0
-1 -2 0
-1 -3 0
-1 -4 0
-1 -5 0
-1 -6 0
-1 -7 0
-1 -8 0
-1 -9 0
-2 -3 0
-2 -4 0
-2 -5 0
-2 -6 0
-2 -7 0
-2 -8 0
-2 -9 0
-3 -4 0
-3 -5 0
-3 -6 0
-3 -7 0
-3 -8 0
-3 -9 0
-4 -5 0
-4 -6 0
-4 -7 0
-4 -8 0
-4 -9 0
-5 -6 0
-5 -7 0
-5 -8 0
-5 -9 0
-6 -7 0
-6 -8 0
-6 -9 0
-7 -8 0
-7 -9 0
-8 -9 0
-10 -11 0
-10 -12 0
-10 -13 0
-10 -14 0
-10 -15 0
-10 -16 0
-10 -17 0
-10 -18 0
-11 -12 0
-11 -13 0
-11 -14 0
-11 -15 0
-11 -16 0
-11 -17 0
-11 -18 0
-12 -13 0
-12 -14 0
-12 -15 0
-12 -16 0
-12 -17 0
-12 -18 0
-13 -14 0
-13 -15 0
-13 -16 0
-13 -17 0
-13 -18 0
-14 -15 0
-14 -16 0
-14 -17 0
-14 -18 0
-15 -16 0
-15 -17 0
-15 -18 0
-16 -17 0
-16 -18 0
-17 -18 0
-19 -20 0
-19 -21 0
-19 -22 0
-19 -23 0
-19 -24 0
-19 -25 0
-19 -26 0
-19 -27 0
-20 -21 0
-20 -22 0
-20 -23 0
-20 -24 0
-20 -25 0
-20 -26 0
-20 -27 0
-21 -22 0
-21 -23 0
-21 -24 0
-21 -25 0
-21 -26 0
-21 -27 0
-22 -23 0
-22 -24 0
-22 -25 0
-22 -26 0
-22 -27 0
-23 -24 0
-23 -25 0
-23 -26 0
-23 -27 0
-24 -25 0
-24 -26 0
-24 -27 0
-25 -26 0
-25 -27 0
-26 -27 0
-28 -29 0
-28 -30 0
-28 -31 0
-28 -32 0
-28 -33 0
-28 -34 0
-28 -35 0
-28 -36 0
-29 -30 0
-29 -31 0
-29 -32 0
-29 -33 0
-29 -34 0
-29 -35 0
-29 -36 0
-30 -31 0
-30 -32 0
-30 -33 0
-30 -34 0
-30 -35 0
-30 -36 0
-31 -32 0
-31 -33 0
-31 -34 0
-31 -35 0
-31 -36 0
-32 -33 0
-32 -34 0
-32 -35 0
-32 -36 0
-33 -34 0
-33 -35 0
-33 -36 0
-34 -35 0
-34 -36 0
-35 -36 0
-37 -38 0
-37 -39 0
-37 -40 0
-37 -41 0
-37 -42 0
-37 -43 0
-37 -44 0
-37 -45 0
-38 -39 0
-38 -40 0
-38 -41 0
-38 -42 0
-38 -43 0
-38 -44 0
-38 -45 0
-39 -40 0
-39 -41 0
-39 -42 0
-39 -43 0
-39 -44 0
-39 -45 0
-40 -41 0
-40 -42 0
-40 -43 0
-40 -44 0
-40 -45 0
-41 -42 0
-41 -43 0
-41 -44 0
-41 -45 0
-42 -43 0
-42 -44 0
-42 -45 0
-43 -44 0
-43 -45 0
-44 -45 0
-46 -47 0
-46 -48 0
-46 -49 0
-46 -50 0
-46 -51 0
-46 -52 0
-46 -53 0
-46 -54 0
-47 -48 0
-47 -49 0
-47 -50 0
-47 -51 0
-47 -52 0
-47 -53 0
-47 -54 0
-48 -49 0
-48 -50 0
-48 -51 0
-48 -52 0
-48 -53 0
-48 -54 0
-49 -50 0
-49 -51 0
-49 -52 0
-49 -53 0
-49 -54 0
-50 -51 0
-50 -52 0
-50 -53 0
-50 -54 0
-51 -52 0
-51 -53 0
-51 -54 0
-52 -53 0
-52 -54 0
-53 -54 0
-55 -56 0
-55 -57 0
-55 -58 0
-55 -59 0
-55 -60 0
-55 -61 0
-55 -62 0
-55 -63 0
-56 -57 0
-56 -58 0
-56 -59 0
-56 -60 0
-56 -61 0
-56 -62 0
-56 -63 0
-57 -58 0
-57 -59 0
-57 -60 0
-57 -61 0
-57 -62 0
-57 -63 0
-58 -59 0
-58 -60 0
-58 -61 0
-58 -62 0
-58 -63 0
-59 -60 0
-59 -61 0
-59 -62 0
-59 -63 0
-60 -61 0
-60 -62 0
-60 -63 0
-61 -62 0
-61 -63 0
-62 -63 0
-64 -65 0
-64 -66 0
-64 -67 0
-64 -68 0
-64 -69 0
-64 -70 0
-64 -71 0
-64 -72 0
-65 -66 0
-65 -67 0
-65 -68 0
-65 -69 0
-65 -70 0
-65 -71 0
-65 -72 0
-66 -67 0
-66 -68 0
-66 -69 0
-66 -70 0
-66 -71 0
-66 -72 0
-67 -68 0
-67 -69 0
-67 -70 0
-67 -71 0
-67 -72 0
-68 -69 0
-68 -70 0
-68 -71 0
-68 -72 0
-69 -70 0
-69 -71 0
-69 -72 0
-70 -71 0
-70 -72 0
-71 -72 0
-73 -74 0
-73 -75 0
-73 -76 0
-73 -77 0
-73 -78 0
-73 -79 0
-73 -80 0
-73 -81 0
-74 -75 0
-74 -76 0
-74 -77 0
-74 -78 0
-74 -79 0
-74 -80 0
-74 -81 0
-75 -76 0
-75 -77 0
-75 -78 0
-75 -79 0
-75 -80 0
-75 -81 0
-76 -77 0
-76 -78 0
-76 -79 0
-76 -80 0
-76 -81 0
-77 -78 0
-77 -79 0
-77 -80 0
-77 -81 0
-78 -79 0
-78 -80 0
-78 -81 0
-79 -80 0
-79 -81 0
-80 -81 0
-82 -83 0
-82 -84 0
-82 -85 0
-82 -86 0
-82 -87 0
-82 -88 0
-82 -89 0
-82 -90 0
-83 -84 0
-83 -85 0
-83 -86 0
-83 -87 0
-83 -88 0
-83 -89 0
-83 -90 0
-84 -85 0
-84 -86 0
-84 -87 0
-84 -88 0
-84 -89 0
-84 -90 0
-85 -86 0
-85 -87 0
-85 -88 0
-85 -89 0
-85 -90 0
-86 -87 0
-86 -88 0
-86 -89 0
-86 -90 0
-87 -88 0
-87 -89 0
-87 -90 0
-88 -89 0
-88 -90 0
-89 -90 0
-91 -92 0
-91 -93 0
-91 -94 0
-91 -95 0
-91 -96 0
-91 -97 0
-91 -98 0
-91 -99 0
-92 -93 0
-92 -94 0
-92 -95 0
-92 -96 0
-92 -97 0
-92 -98 0
-92 -99 0
-93 -94 0
-93 -95 0
-93 -96 0
-93 -97 0
-93 -98 0
-93 -99 0
-94 -95 0
-94 -96 0
-94 -97 0
-94 -98 0
-94 -99 0
-95 -96 0
-95 -97 0
-95 -98 0
-95 -99 0
-96 -97 0
-96 -98 0
-96 -99 0
-97 -98 0
-97 -99 0
-98 -99 0
-100 -101 0
-100 -102 0
-100 -103 0
-100 -104 0
-100 -105 0
-100 -106 0
-100 -107 0
-100 -108 0
-101 -102 0
-101 -103 0
-101 -104 0
-101 -105 0
-101 -106 0
-101 -107 0
-101 -108 0
-102 -103 0
-102 -104 0
-102 -105 0
-102 -106 0
-102 -107 0
-102 -108 0
-103 -104 0
-103 -105 0
-103 -106 0
-103 -107 0
-103 -108 0
-104 -105 0
-104 -106 0
-104 -107 0
-104 -108 0
-105 -106 0
-105 -107 0
-105 -108 0
-106 -107 0
-106 -108 0
-107 -108 0
-109 -110 0
-109 -111 0
-109 -112 0
-109 -113 0
-109 -114 0
-109 -115 0
-109 -116 0
-109 -117 0
-110 -111 0
-110 -112 0
-110 -113 0
-110 -114 0
-110 -115 0
-110 -116 0
-110 -117 0
-111 -112 0
-111 -113 0
-111 -114 0
-111 -115 0
-111 -116 0
-111 -117 0
-112 -113 0
-112 -114 0
-112 -115 0
-112 -116 0
-112 -117 0
-113 -114 0
-113 -115 0
-113 -116 0
-113 -117 0
-114 -115 0
-114 -116 0
-114 -117 0
-115 -116 0
-115 -117 0
-116 -117 0
-118 -119 0
-118 -120 0
-118 -121 0
-118 -122 0
-118 -123 0
-118 -124 0
-118 -125 0
-118 -126 0
-119 -120 0
-119 -121 0
-119 -122 0
-119 -123 0
-119 -124 0
-119 -125 0
-119 -126 0
-120 -121 0
-120 -122 0
-120 -123 0
-120 -124 0
-120 -125 0
-120 -126 0
-121 -122 0
-121 -123 0
-121 -124 0
-121 -125 0
-121 -126 0
-122 -123 0
-122 -124 0
-122 -125 0
-122 -126 0
-123 -124 0
-123 -125 0
-123 -126 0
-124 -125 0
-124 -126 0
-125 -126 0
-127 -128 0
-127 -129 0
-127 -130 0
-127 -131 0
-127 -132 0
-127 -133 0
-127 -134 0
-127 -135 0
-128 -129 0
-128 -130 0
-128 -131 0
-128 -132 0
-128 -133 0
-128 -134 0
-128 -135 0
-129 -130 0
-129 -131 0
-129 -132 0
-129 -133 0
-129 -134 0
-129 -135 0
-130 -131 0
-130 -132 0
-130 -133 0
-130 -134 0
-130 -135 0
-131 -132 0
-131 -133 0
-131 -134 0
-131 -135 0
-132 -133 0
-132 -134 0
-132 -135 0
-133 -134 0
-133 -135 0
-134 -135 0
-136 -137 0
-136 -138 0
-136 -139 0
-136 -140 0
-136 -141 0
-136 -142 0
-136 -143 0
-136 -144 0
-137 -138 0
-137 -139 0
-137 -140 0
-137 -141 0
-137 -142 0
-137 -143 0
-137 -144 0
-138 -139 0
-138 -140 0
-138 -141 0
-138 -142 0
-138 -143 0
-138 -144 0
-139 -140 0
-139 -141 0
-139 -142 0
-139 -143 0
-139 -144 0
-140 -141 0
-140 -142 0
-140 -143 0
-140 -144 0
-141 -142 0
-141 -143 0
-141 -144 0
-142 -143 0
-142 -144 0
-143 -144 0
-145 -146 0
-145 -147 0
-145 -148 0
-145 -149 0
-145 -150 0
-145 -151 0
-145 -152 0
-145 -153 0
-146 -147 0
-146 -148 0
-146 -149 0
-146 -150 0
-146 -151 0
-146 -152 0
-146 -153 0
-147 -148 0
-147 -149 0
-147 -150 0
-147 -151 0
-147 -152 0
-147 -153 0
-148 -149 0
-148 -150 0
-148 -151 0
-148 -152 0
-148 -153 0
-149 -150 0
-149 -151 0
-149 -152 0
-149 -153 0
-150 -151 0
-150 -152 0
-150 -153 0
-151 -152 0
-151 -153 0
-152 -153 0
-154 -155 0
-154 -156 0
-154 -157 0
-154 -158 0
-154 -159 0
-154 -160 0
-154 -161 0
-154 -162 0
-155 -156 0
-155 -157 0
-155 -158 0
-155 -159 0
-155 -160 0
-155 -161 0
-155 -162 0
-156 -157 0
-156 -158 0
-156 -159 0
-156 -160 0
-156 -161 0
-156 -162 0
-157 -158 0
-157 -159 0
-157 -160 0
-157 -161 0
-157 -162 0
-158 -159 0
-158 -160 0
-158 -161 0
-158 -162 0
-159 -160 0
-159 -161 0
-159 -162 0
-160 -161 0
-160 -162 0
-161 -162 0
-163 -164 0
-163 -165 0
-163 -166 0
-163 -167 0
-163 -168 0
-163 -169 0
-163 -170 0
-163 -171 0
-164 -165 0
-164 -166 0
-164 -167 0
-164 -168 0
-164 -169 0
-164 -170 0
-164 -171 0
-165 -166 0
-165 -167 0
-165 -168 0
-165 -169 0
-165 -170 0
-165 -171 0
-166 -167 0
-166 -168 0
-166 -169 0
-166 -170 0
-166 -171 0
-167 -168 0
-167 -169 0
-167 -170 0
-167 -171 0
-168 -169 0
-168 -170 0
-168 -171 0
-169 -170 0
-169 -171 0
-170 -171 0
-172 -173 0
-172 -174 0
-172 -175 0
-172 -176 0
-172 -177 0
-172 -178 0
-172 -179 0
-172 -180 0
-173 -174 0
-173 -175 0
-173 -176 0
-173 -177 0
-173 -178 0
-173 -179 0
-173 -180 0
-174 -175 0
-174 -176 0
-174 -177 0
-174 -178 0
-174 -179 0
-174 -180 0
-175 -176 0
-175 -177 0
-175 -178 0
-175 -179 0
-175 -180 0
-176 -177 0
-176 -178 0
-176 -179 0
-176 -180 0
-177 -178 0
-177 -179 0
-177 -180 0
-178 -179 0
-178 -180 0
-179 -180 0
-181 -182 0
-181 -183 0
-181 -184 0
-181 -185 0
-181 -186 0
-181 -187 0
-181 -188 0
-181 -189 0
-182 -183 0
-182 -184 0
-182 -185 0
-182 -186 0
-182 -187 0
-182 -188 0
-182 -189 0
-183 -184 0
-183 -185 0
-183 -186 0
-183 -187 0
-183 -188 0
-183 -189 0
-184 -185 0
-184 -186 0
-184 -187 0
-184 -188 0
-184 -189 0
-185 -186 0
-185 -187 0
-185 -188 0
-185 -189 0
-186 -187 0
-186 -188 0
-186 -189 0
-187 -188 0
-187 -189 0
-188 -189 0
-190 -191 0
-190 -192 0
-190 -193 0
-190 -194 0
-190 -195 0
-190 -196 0
-190 -197 0
-190 -198 0
-191 -192 0
-191 -193 0
-191 -194 0
-191 -195 0
-191 -196 0
-191 -197 0
-191 -198 0
-192 -193 0
-192 -194 0
-192 -195 0
-192 -196 0
-192 -197 0
-192 -198 0
-193 -194 0
-193 -195 0
-193 -196 0
-193 -197 0
-193 -198 0
-194 -195 0
-194 -196 0
-194 -197 0
-194 -198 0
-195 -196 0
-195 -197 0
-195 -198 0
-196 -197 0
-196 -198 0
-197 -198 0
-199 -200 0
-199 -201 0
-199 -202 0
-199 -203 0
-199 -204 0
-199 -205 0
-199 -206 0
-199 -207 0
-200 -201 0
-200 -202 0
-200 -203 0
-200 -204 0
-200 -205 0
-200 -206 0
-200 -207 0
-201 -202 0
-201 -203 0
-201 -204 0
-201 -205 0
-201 -206 0
-201 -207 0
-202 -203 0
-202 -204 0
-202 -205 0
-202 -206 0
-202 -207 0
-203 -204 0
-203 -205 0
-203 -206 0
-203 -207 0
-204 -205 0
-204 -206 0
-204 -207 0
-205 -206 0
-205 -207 0
-206 -207 0
-208 -209 0
-208 -210 0
-208 -211 0
-208 -212 0
-208 -213 0
-208 -214 0
-208 -215 0
-208 -216 0
-209 -210 0
-209 -211 0
-209 -212 0
-209 -213 0
-209 -214 0
-209 -215 0
-209 -216 0
-210 -211 0
-210 -212 0
-210 -213 0
-210 -214 0
-210 -215 0
-210 -216 0
-211 -212 0
-211 -213 0
-211 -214 0
-211 -215 0
-211 -216 0
-212 -213 0
-212 -214 0
-212 -215 0
-212 -216 0
-213 -214 0
-213 -215 0
-213 -216 0
-214 -215 0
-214 -216 0
-215 -216 0
-217 -218 0
-217 -219 0
-217 -220 0
-217 -221 0
-217 -222 0
-217 -223 0
-217 -224 0
-217 -225 0
-218 -219 0
-218 -220 0
-218 -221 0
-218 -222 0
-218 -223 0
-218 -224 0
-218 -225 0
-219 -220 0
-219 -221 0
-219 -222 0
-219 -223 0
-219 -224 0
-219 -225 0
-220 -221 0
-220 -222 0
-220 -223 0
-220 -224 0
-220 -225 0
-221 -222 0
-221 -223 0
-221 -224 0
-221 -225 0
-222 -223 0
-222 -224 0
-222 -225 0
-223 -224 0
-223 -225 0
-224 -225 0
-226 -227 0
-226 -228 0
-226 -229 0
-226 -230 0
-226 -231 0
-226 -232 0
-226 -233 0
-226 -234 0
-227 -228 0
-227 -229 0
-227 -230 0
-227 -231 0
-227 -232 0
-227 -233 0
-227 -234 0
-228 -229 0
-228 -230 0
-228 -231 0
-228 -232 0
-228 -233 0
-228 -234 0
-229 -230 0
-229 -231 0
-229 -232 0
-229 -233 0
-229 -234 0
-230 -231 0
-230 -232 0
-230 -233 0
-230 -234 0
-231 -232 0
-231 -233 0
-231 -234 0
-232 -233 0
-232 -234 0
-233 -234 0
-235 -236 0
-235 -237 0
-235 -238 0
-235 -239 0
-235 -240 0
-235 -241 0
-235 -242 0
-235 -243 0
-236 -237 0
-236 -238 0
-236 -239 0
-236 -240 0
-236 -241 0
-236 -242 0
-236 -243 0
-237 -238 0
-237 -239 0
-237 -240 0
-237 -241 0
-237 -242 0
-237 -243 0
-238 -239 0
-238 -240 0
-238 -241 0
-238 -242 0
-238 -243 0
-239 -240 0
-239 -241 0
-239 -242 0
-239 -243 0
-240 -241 0
-240 -242 0
-240 -243 0
-241 -242 0
-241 -243 0
-242 -243 0
-244 -245 0
-244 -246 0
-244 -247 0
-244 -248 0
-244 -249 0
-244 -250 0
-244 -251 0
-244 -252 0
-245 -246 0
-245 -247 0
-245 -248 0
-245 -249 0
-245 -250 0
-245 -251 0
-245 -252 0
-246 -247 0
-246 -248 0
-246 -249 0
-246 -250 0
-246 -251 0
-246 -252 0
-247 -248 0
-247 -249 0
-247 -250 0
-247 -251 0
-247 -252 0
-248 -249 0
-248 -250 0
-248 -251 0
-248 -252 0
-249 -250 0
-249 -251 0
-249 -252 0
-250 -251 0
-250 -252 0
-251 -252 0
-253 -254 0
-253 -255 0
-253 -256 0
-253 -257 0
-253 -258 0
-253 -259 0
-253 -260 0
-253 -261 0
-254 -255 0
-254 -256 0
-254 -257 0
-254 -258 0
-254 -259 0
-254 -260 0
-254 -261 0
-255 -256 0
-255 -257 0
-255 -258 0
-255 -259 0
-255 -260 0
-255 -261 0
-256 -257 0
-256 -258 0
-256 -259 0
-256 -260 0
-256 -261 0
-257 -258 0
-257 -259 0
-257 -260 0
-257 -261 0
-258 -259 0
-258 -260 0
-258 -261 0
-259 -260 0
-259 -261 0
-260 -261 0
-262 -263 0
-262 -264 0
-262 -265 0
-262 -266 0
-262 -267 0
-262 -268 0
-262 -269 0
-262 -270 0
-263 -264 0
-263 -265 0
-263 -266 0
-263 -267 0
-263 -268 0
-263 -269 0
-263 -270 0
-264 -265 0
-264 -266 0
-264 -267 0
-264 -268 0
-264 -269 0
-264 -270 0
-265 -266 0
-265 -267 0
-265 -268 0
-265 -269 0
-265 -270 0
-266 -267 0
-266 -268 0
-266 -269 0
-266 -270 0
-267 -268 0
-267 -269 0
-267 -270 0
-268 -269 0
-268 -270 0
-269 -270 0
-271 -272 0
-271 -273 0
-271 -274 0
-271 -275 0
-271 -276 0
-271 -277 0
-271 -278 0
-271 -279 0
-272 -273 0
-272 -274 0
-272 -275 0
-272 -276 0
-272 -277 0
-272 -278 0
-272 -279 0
-273 -274 0
-273 -275 0
-273 -276 0
-273 -277 0
-273 -278 0
-273 -279 0
-274 -275 0
-274 -276 0
-274 -277 0
-274 -278 0
-274 -279 0
-275 -276 0
-275 -277 0
-275 -278 0
-275 -279 0
-276 -277 0
-276 -278 0
-276 -279 0
-277 -278 0
-277 -279 0
-278 -279 0
-280 -281 0
-280 -282 0
-280 -283 0
-280 -284 0
-280 -285 0
-280 -286 0
-280 -287 0
-280 -288 0
-281 -282 0
-281 -283 0
-281 -284 0
-281 -285 0
-281 -286 0
-281 -287 0
-281 -288 0
-282 -283 0
-282 -284 0
-282 -285 0
-282 -286 0
-282 -287 0
-282 -288 0
-283 -284 0
-283 -285 0
-283 -286 0
-283 -287 0
-283 -288 0
-284 -285 0
-284 -286 0
-284 -287 0
-284 -288 0
-285 -286 0
-285 -287 0
-285 -288 0
-286 -287 0
-286 -288 0
-287 -288 0
-289 -290 0
-289 -291 0
-289 -292 0
-289 -293 0
-289 -294 0
-289 -295 0
-289 -296 0
-289 -297 0
-290 -291 0
-290 -292 0
-290 -293 0
-290 -294 0
-290 -295 0
-290 -296 0
-290 -297 0
-291 -292 0
-291 -293 0
-291 -294 0
-291 -295 0
-291 -296 0
-291 -297 0
-292 -293 0
-292 -294 0
-292 -295 0
-292 -296 0
-292 -297 0
-293 -294 0
-293 -295 0
-293 -296 0
-293 -297 0
-294 -295 0
-294 -296 0
-294 -297 0
-295 -296 0
-295 -297 0
-296 -297 0
-298 -299 0
-298 -300 0
-298 -301 0
-298 -302 0
-298 -303 0
-298 -304 0
-298 -305 0
-298 -306 0
-299 -300 0
-299 -301 0
-299 -302 0
-299 -303 0
-299 -304 0
-299 -305 0
-299 -306 0
-300 -301 0
-300 -302 0
-300 -303 0
-300 -304 0
-300 -305 0
-300 -306 0
-301 -302 0
-301 -303 0
-301 -304 0
-301 -305 0
-301 -306 0
-302 -303 0
-302 -304 0
-302 -305 0
-302 -306 0
-303 -304 0
-303 -305 0
-303 -306 0
-304 -305 0
-304 -306 0
-305 -306 0
-307 -308 0
-307 -309 0
-307 -310 0
-307 -311 0
-307 -312 0
-307 -313 0
-307 -314 0
-307 -315 0
-308 -309 0
-308 -310 0
-308 -311 0
-308 -312 0
-308 -313 0
-308 -314 0
-308 -315 0
-309 -310 0
-309 -311 0
-309 -312 0
-309 -313 0
-309 -314 0
-309 -315 0
-310 -311 0
-310 -312 0
-310 -313 0
-310 -314 0
-310 -315 0
-311 -312 0
-311 -313 0
-311 -314 0
-311 -315 0
-312 -313 0
-312 -314 0
-312 -315 0
-313 -314 0
-313 -315 0
-314 -315 0
-3 -13 0
-5 -11 0
-9 -10 0
-8 -10 0
-1 -13 0
-2 -12 0
-3 -18 0
-2 -17 0
-5 -13 0
-3 -17 0
-8 -13 0
-6 -14 0
-7 -13 0
-7 -12 0
-5 -10 0
-9 -12 0
-3 -11 0
-1 -17 0
-6 -11 0
-2 -11 0
-4 -18 0
-3 -14 0
-4 -10 0
-3 -12 0
-2 -113 0
-9 -112 0
-3 -112 0
-6 -112 0
-7 -116 0
-1 -109 0
-8 -113 0
-6 -109 0
-8 -109 0
-7 -115 0
-7 -110 0
-4 -117 0
-3 -116 0
-7 -109 0
-4 -112 0
-1 -115 0
-6 -117 0
-7 -117 0
-4 -113 0
-6 -111 0
-5 -117 0
-5 -113 0
-9 -117 0
-6 -115 0
-4 -134 0
-1 -134 0
-2 -127 0
-6 -129 0
-1 -129 0
-6 -135 0
-8 -133 0
-3 -127 0
-3 -129 0
-1 -131 0
-6 -128 0
-2 -129 0
-3 -132 0
-8 -127 0
-9 -128 0
-7 -129 0
-4 -133 0
-4 -132 0
-6 -127 0
-5 -129 0
-3 -135 0
-9 -132 0
-5 -133 0
-5 -135 0
-4 -274 0
-3 -276 0
-4 -277 0
-1 -272 0
-1 -277 0
-3 -279 0
-7 -278 0
-7 -273 0
-6 -275 0
-7 -277 0
-5 -275 0
-3 -273 0
-5 -274 0
-5 -276 0
-2 -276 0
-3 -278 0
-6 -276 0
-4 -271 0
-7 -276 0
-4 -272 0
-2 -273 0
-6 -271 0
-6 -273 0
-4 -275 0
-8 -310 0
-1 -312 0
-9 -308 0
-3 -307 0
-1 -308 0
-7 -312 0
-2 -307 0
-7 -310 0
-7 -311 0
-5 -315 0
-1 -311 0
-9 -311 0
-8 -312 0
-1 -314 0
-6 -307 0
-7 -307 0
-3 -312 0
-8 -311 0
-1 -307 0
-1 -310 0
-6 -309 0
-2 -310 0
-5 -312 0
-3 -309 0
-15 -35 0
-18 -30 0
-11 -31 0
-13 -32 0
-10 -34 0
-11 -30 0
-10 -31 0
-10 -35 0
-17 -34 0
-17 -32 0
-18 -34 0
-12 -31 0
-11 -28 0
-14 -32 0
-18 -33 0
-17 -31 0
-14 -34 0
-12 -32 0
-17 -36 0
-12 -33 0
-13 -30 0
-13 -36 0
-14 -29 0
-16 -28 0
-10 -117 0
-16 -110 0
-13 -115 0
-10 -112 0
-11 -109 0
-13 -111 0
-11 -115 0
-17 -117 0
-17 -109 0
-11 -114 0
-17 -110 0
-15 -114 0
-17 -113 0
-16 -112 0
-18 -114 0
-10 -110 0
-16 -116 0
-16 -111 0
-14 -114 0
-13 -109 0
-11 -110 0
-13 -110 0
-18 -109 0
-14 -116 0
-14 -207 0
-10 -201 0
-13 -204 0
-13 -202 0
-11 -199 0
-18 -202 0
-17 -205 0
-13 -205 0
-16 -206 0
-14 -202 0
-13 -206 0
-15 -201 0
-18 -199 0
-18 -205 0
-15 -199 0
-17 -199 0
-17 -200 0
-14 -199 0
-11 -207 0
-17 -206 0
-12 -201 0
-16 -200 0
-10 -199 0
-13 -203 0
-19 -260 0
-26 -261 0
-20 -256 0
-22 -259 0
-20 -257 0
-26 -257 0
-21 -259 0
-22 -256 0
-22 -261 0
-27 -254 0
-20 -255 0
-21 -257 0
-20 -258 0
-24 -257 0
-25 -259 0
-23 -256 0
-26 -255 0
-26 -254 0
-24 -260 0
-23 -254 0
-21 -258 0
-26 -259 0
-23 -257 0
-25 -258 0
-19 -290 0
-26 -294 0
-27 -289 0
-24 -295 0
-22 -295 0
-19 -294 0
-20 -292 0
-19 -296 0
-23 -292 0
-19 -295 0
-24 -291 0
-20 -291 0
-21 -292 0
-27 -295 0
-22 -291 0
-25 -292 0
-21 -290 0
-23 -289 0
-23 -291 0
-20 -296 0
-20 -289 0
-26 -293 0
-20 -293 0
-27 -292 0
-36 -67 0
-28 -65 0
-28 -66 0
-30 -71 0
-30 -68 0
-29 -70 0
-33 -65 0
-34 -65 0
-32 -72 0
-32 -64 0
-36 -65 0
-30 -72 0
-34 -66 0
-29 -69 0
-34 -69 0
-30 -70 0
-29 -71 0
-31 -72 0
-33 -69 0
-29 -72 0
-28 -70 0
-31 -66 0
-34 -64 0
-28 -69 0
-29 -124 0
-36 -123 0
-34 -124 0
-30 -120 0
-32 -120 0
-29 -125 0
-33 -119 0
-32 -119 0
-30 -122 0
-29 -119 0
-29 -121 0
-33 -118 0
-35 -118 0
-36 -119 0
-31 -124 0
-32 -125 0
-31 -122 0
-30 -123 0
-31 -126 0
-35 -123 0
-36 -121 0
-28 -120 0
-31 -118 0
-28 -123 0
-35 -244 0
-31 -249 0
-30 -245 0
-29 -248 0
-29 -244 0
-30 -250 0
-28 -249 0
-36 -244 0
-30 -249 0
-34 -248 0
-35 -246 0
-32 -249 0
-31 -247 0
-34 -250 0
-29 -251 0
-36 -251 0
-35 -251 0
-28 -245 0
-30 -244 0
-29 -246 0
-31 -251 0
-28 -246 0
-29 -245 0
-32 -248 0
-31 -274 0
-31 -271 0
-28 -272 0
-30 -279 0
-31 -276 0
-35 -274 0
-33 -274 0
-36 -277 0
-34 -271 0
-36 -274 0
-33 -276 0
-28 -275 0
-35 -278 0
-33 -272 0
-35 -279 0
-30 -273 0
-28 -274 0
-30 -274 0
-34 -272 0
-30 -278 0
-31 -279 0
-36 -276 0
-36 -272 0
-34 -274 0
-52 -58 0
-47 -62 0
-50 -58 0
-54 -61 0
-46 -55 0
-49 -62 0
-53 -63 0
-53 -60 0
-47 -61 0
-50 -63 0
-53 -61 0
-53 -56 0
-51 -55 0
-52 -60 0
-52 -55 0
-48 -63 0
-48 -55 0
-46 -58 0
-54 -57 0
-51 -60 0
-50 -56 0
-52 -59 0
-51 -57 0
-48 -56 0
-51 -65 0
-46 -68 0
-48 -70 0
-50 -70 0
-52 -70 0
-50 -72 0
-52 -72 0
-46 -69 0
-54 -67 0
-51 -72 0
-51 -70 0
-54 -69 0
-48 -71 0
-48 -67 0
-48 -66 0
-54 -66 0
-46 -72 0
-47 -67 0
-46 -70 0
-51 -66 0
-50 -69 0
-51 -71 0
-52 -66 0
-53 -65 0
-49 -101 0
-48 -103 0
-48 -101 0
-49 -107 0
-49 -104 0
-50 -100 0
-48 -105 0
-50 -104 0
-50 -103 0
-54 -104 0
-46 -105 0
-47 -107 0
-53 -103 0
-47 -101 0
-52 -102 0
-52 -105 0
-49 -100 0
-49 -103 0
-50 -106 0
-53 -108 0
-48 -106 0
-46 -108 0
-46 -106 0
-47 -108 0
-46 -111 0
-53 -115 0
-54 -115 0
-48 -110 0
-48 -113 0
-46 -113 0
-49 -113 0
-52 -111 0
-49 -109 0
-54 -112 0
-47 -115 0
-54 -113 0
-51 -115 0
-48 -112 0
-52 -112 0
-48 -109 0
-50 -110 0
-52 -114 0
-50 -115 0
-48 -115 0
-46 -109 0
-54 -114 0
-53 -117 0
-54 -116 0
-51 -124 0
-51 -125 0
-49 -119 0
-54 -122 0
-52 -121 0
-49 -118 0
-53 -120 0
-48 -126 0
-48 -118 0
-53 -126 0
-52 -125 0
-46 -125 0
-50 -124 0
-50 -120 0
-46 -122 0
-48 -123 0
-51 -126 0
-53 -118 0
-50 -123 0
-49 -123 0
-51 -121 0
-54 -124 0
-50 -126 0
-54 -123 0
-54 -178 0
-46 -173 0
-50 -175 0
-51 -180 0
-51 -172 0
-46 -174 0
-52 -176 0
-46 -178 0
-52 -172 0
-54 -179 0
-46 -175 0
-47 -175 0
-51 -179 0
-52 -179 0
-48 -172 0
-48 -180 0
-46 -172 0
-53 -175 0
-47 -172 0
-47 -174 0
-53 -180 0
-51 -174 0
-47 -179 0
-48 -179 0
-49 -211 0
-48 -211 0
-54 -209 0
-50 -215 0
-52 -214 0
-54 -213 0
-51 -209 0
-46 -209 0
-51 -208 0
-46 -213 0
-52 -210 0
-52 -208 0
-51 -216 0
-47 -210 0
-47 -212 0
-50 -216 0
-48 -214 0
-47 -211 0
-48 -212 0
-49 -216 0
-49 -213 0
-52 -212 0
-52 -215 0
-51 -210 0
-51 -254 0
-50 -260 0
-50 -258 0
-54 -259 0
-47 -255 0
-48 -254 0
-47 -260 0
-49 -253 0
-53 -258 0
-47 -256 0
-48 -258 0
-54 -256 0
-53 -253 0
-51 -257 0
-50 -253 0
-52 -260 0
-49 -256 0
-47 -254 0
-46 -253 0
-52 -261 0
-52 -255 0
-50 -256 0
-48 -253 0
-46 -261 0
-49 -288 0
-52 -285 0
-52 -284 0
-46 -282 0
-48 -284 0
-47 -287 0
-53 -281 0
-51 -284 0
-48 -283 0
-46 -286 0
-53 -286 0
-50 -284 0
-50 -286 0
-49 -281 0
-52 -283 0
-54 -288 0
-48 -287 0
-51 -286 0
-47 -280 0
-46 -281 0
-47 -283 0
-50 -283 0
-52 -288 0
-53 -284 0
-56 -149 0
-58 -147 0
-58 -148 0
-63 -147 0
-60 -151 0
-62 -147 0
-56 -146 0
-62 -152 0
-57 -149 0
-63 -151 0
-55 -147 0
-62 -146 0
-60 -153 0
-59 -151 0
-59 -146 0
-57 -152 0
-62 -150 0
-58 -152 0
-55 -149 0
-57 -145 0
-57 -151 0
-63 -150 0
-57 -153 0
-58 -150 0
-63 -228 0
-62 -227 0
-55 -229 0
-60 -229 0
-62 -226 0
-60 -234 0
-60 -233 0
-62 -232 0
-61 -229 0
-55 -227 0
-58 -226 0
-59 -232 0
-57 -229 0
-63 -233 0
-63 -230 0
-58 -231 0
-59 -234 0
-57 -228 0
-61 -230 0
-61 -228 0
-60 -228 0
-58 -228 0
-59 -233 0
-57 -232 0
-58 -242 0
-57 -240 0
-59 -241 0
-63 -242 0
-60 -239 0
-62 -240 0
-63 -241 0
-58 -237 0
-61 -243 0
-56 -241 0
-59 -237 0
-56 -235 0
-62 -235 0
-59 -239 0
-57 -242 0
-57 -235 0
-60 -242 0
-60 -241 0
-58 -240 0
-57 -236 0
-58 -235 0
-62 -237 0
-57 -238 0
-63 -237 0
-69 -159 0
-66 -157 0
-71 -161 0
-66 -160 0
-69 -157 0
-66 -159 0
-65 -154 0
-72 -154 0
-70 -159 0
-71 -155 0
-68 -161 0
-65 -155 0
-68 -160 0
-69 -158 0
-72 -160 0
-72 -158 0
-70 -156 0
-72 -159 0
-68 -156 0
-69 -162 0
-70 -157 0
-70 -160 0
-64 -154 0
-71 -159 0
-80 -91 0
-77 -96 0
-81 -95 0
-79 -98 0
-80 -99 0
-79 -97 0
-76 -96 0
-79 -92 0
-80 -92 0
-81 -91 0
-79 -94 0
-76 -97 0
-73 -95 0
-74 -99 0
-74 -95 0
-74 -97 0
-80 -93 0
-77 -95 0
-75 -98 0
-77 -91 0
-77 -98 0
-79 -96 0
-74 -96 0
-76 -99 0
-76 -136 0
-74 -137 0
-73 -137 0
-74 -138 0
-76 -138 0
-73 -139 0
-79 -143 0
-81 -142 0
-77 -143 0
-73 -141 0
-75 -139 0
-78 -142 0
-73 -140 0
-76 -142 0
-75 -136 0
-79 -141 0
-77 -142 0
-80 -140 0
-79 -139 0
-75 -142 0
-76 -143 0
-75 -143 0
-75 -137 0
-73 -142 0
-77 -194 0
-80 -197 0
-74 -194 0
-73 -195 0
-75 -190 0
-81 -190 0
-79 -190 0
-81 -196 0
-76 -197 0
-80 -194 0
-79 -198 0
-77 -190 0
-79 -197 0
-73 -198 0
-74 -191 0
-77 -191 0
-74 -195 0
-79 -194 0
-79 -191 0
-77 -192 0
-79 -195 0
-74 -192 0
-73 -193 0
-81 -195 0
-81 -233 0
-76 -234 0
-79 -234 0
-77 -232 0
-81 -229 0
-75 -233 0
-77 -229 0
-76 -228 0
-77 -230 0
-75 -226 0
-79 -229 0
-73 -232 0
-77 -226 0
-78 -226 0
-73 -226 0
-80 -229 0
-80 -230 0
-78 -232 0
-74 -234 0
-74 -230 0
-78 -229 0
-75 -232 0
-76 -233 0
-78 -228 0
-90 -186 0
-84 -182 0
-87 -183 0
-89 -188 0
-90 -185 0
-83 -188 0
-84 -186 0
-89 -185 0
-88 -187 0
-88 -184 0
-84 -185 0
-90 -188 0
-89 -189 0
-88 -183 0
-82 -181 0
-83 -184 0
-90 -187 0
-83 -186 0
-82 -188 0
-85 -188 0
-86 -182 0
-88 -181 0
-89 -183 0
-89 -184 0
-88 -304 0
-87 -305 0
-88 -300 0
-87 -303 0
-87 -301 0
-84 -300 0
-90 -300 0
-90 -298 0
-83 -302 0
-85 -301 0
-82 -303 0
-83 -298 0
-85 -300 0
-82 -304 0
-84 -303 0
-85 -305 0
-84 -305 0
-86 -305 0
-86 -298 0
-83 -303 0
-89 -306 0
-89 -301 0
-88 -306 0
-83 -306 0
-93 -133 0
-91 -132 0
-98 -132 0
-92 -133 0
-99 -130 0
-92 -131 0
-92 -135 0
-93 -130 0
-96 -135 0
-97 -127 0
-99 -131 0
-96 -130 0
-94 -135 0
-92 -128 0
-92 -130 0
-92 -132 0
-99 -127 0
-93 -132 0
-91 -135 0
-95 -134 0
-98 -129 0
-98 -134 0
-96 -134 0
-94 -133 0
-108 -246 0
-106 -245 0
-104 -245 0
-107 -250 0
-106 -252 0
-105 -245 0
-108 -249 0
-108 -250 0
-105 -251 0
-104 -252 0
-103 -249 0
-105 -252 0
-106 -248 0
-103 -250 0
-108 -244 0
-105 -247 0
-105 -244 0
-101 -245 0
-103 -245 0
-102 -247 0
-102 -252 0
-100 -252 0
-104 -247 0
-104 -248 0
-112 -154 0
-115 -158 0
-116 -155 0
-113 -155 0
-116 -161 0
-110 -155 0
-115 -162 0
-111 -154 0
-110 -161 0
-110 -154 0
-115 -161 0
-117 -157 0
-109 -162 0
-112 -161 0
-110 -160 0
-117 -159 0
-109 -159 0
-113 -162 0
-111 -156 0
-114 -158 0
-115 -155 0
-111 -155 0
-112 -157 0
-109 -158 0
-109 -173 0
-112 -179 0
-116 -174 0
-116 -180 0
-116 -172 0
-110 -172 0
-111 -179 0
-116 -173 0
-115 -174 0
-111 -173 0
-113 -173 0
-110 -179 0
-117 -179 0
-113 -175 0
-115 -176 0
-112 -172 0
-117 -176 0
-110 -177 0
-113 -177 0
-111 -172 0
-111 -177 0
-111 -176 0
-117 -175 0
-110 -174 0
-124 -145 0
-126 -146 0
-123 -149 0
-120 -145 0
-123 -145 0
-120 -152 0
-126 -151 0
-122 -152 0
-121 -146 0
-126 -145 0
-118 -153 0
-120 -153 0
-126 -149 0
-124 -151 0
-126 -147 0
-123 -153 0
-120 -149 0
-119 -145 0
-125 -146 0
-121 -147 0
-119 -147 0
-118 -152 0
-123 -152 0
-121 -152 0
-126 -280 0
-121 -288 0
-120 -280 0
-120 -286 0
-118 -281 0
-120 -284 0
-126 -285 0
-126 -288 0
-126 -281 0
-123 -281 0
-121 -285 0
-121 -283 0
-125 -286 0
-124 -280 0
-122 -280 0
-125 -288 0
-125 -283 0
-122 -284 0
-121 -287 0
-120 -282 0
-125 -280 0
-119 -283 0
-120 -281 0
-118 -284 0
-134 -197 0
-131 -197 0
-132 -193 0
-134 -195 0
-130 -193 0
-129 -194 0
-129 -191 0
-135 -194 0
-135 -195 0
-127 -194 0
-130 -190 0
-131 -194 0
-132 -198 0
-132 -195 0
-134 -192 0
-127 -193 0
-133 -196 0
-131 -192 0
-127 -192 0
-127 -196 0
-129 -197 0
-129 -192 0
-134 -193 0
-128 -195 0
-130 -256 0
-128 -254 0
-129 -254 0
-129 -259 0
-134 -258 0
-132 -255 0
-127 -253 0
-127 -260 0
-131 -255 0
-127 -258 0
-131 -260 0
-134 -260 0
-133 -261 0
-135 -257 0
-127 -254 0
-127 -255 0
-129 -257 0
-129 -260 0
-128 -253 0
-128 -257 0
-134 -257 0
-132 -257 0
-127 -261 0
-129 -258 0
-128 -299 0
-130 -304 0
-131 -305 0
-129 -298 0
-133 -298 0
-134 -298 0
-133 -304 0
-130 -300 0
-132 -304 0
-133 -299 0
-135 -300 0
-129 -300 0
-127 -306 0
-131 -302 0
-128 -306 0
-129 -299 0
-128 -305 0
-132 -303 0
-133 -300 0
-128 -300 0
-131 -301 0
-134 -306 0
-130 -301 0
-130 -299 0
-152 -174 0
-151 -177 0
-149 -180 0
-152 -173 0
-146 -180 0
-150 -174 0
-151 -178 0
-152 -180 0
-148 -179 0
-152 -175 0
-147 -180 0
-153 -175 0
-152 -176 0
-149 -173 0
-151 -175 0
-148 -172 0
-148 -175 0
-153 -176 0
-149 -176 0
-150 -175 0
-145 -176 0
-148 -177 0
-150 -176 0
-151 -172 0
-145 -212 0
-153 -209 0
-149 -212 0
-153 -212 0
-152 -216 0
-149 -214 0
-145 -213 0
-153 -215 0
-151 -210 0
-150 -212 0
-150 -211 0
-145 -214 0
-152 -208 0
-150 -209 0
-145 -216 0
-149 -210 0
-151 -213 0
-148 -213 0
-151 -215 0
-150 -214 0
-153 -216 0
-149 -211 0
-145 -210 0
-147 -212 0
-155 -177 0
-158 -175 0
-162 -173 0
-162 -175 0
-160 -180 0
-156 -172 0
-155 -175 0
-156 -178 0
-156 -176 0
-155 -174 0
-155 -179 0
-158 -176 0
-156 -174 0
-158 -172 0
-162 -174 0
-160 -174 0
-160 -176 0
-157 -177 0
-162 -180 0
-162 -176 0
-159 -172 0
-155 -172 0
-155 -178 0
-159 -180 0
-161 -232 0
-158 -230 0
-160 -226 0
-157 -234 0
-156 -226 0
-156 -229 0
-159 -226 0
-159 -233 0
-156 -231 0
-155 -227 0
-159 -231 0
-162 -231 0
-157 -226 0
-159 -234 0
-162 -228 0
-156 -227 0
-154 -234 0
-154 -226 0
-159 -230 0
-155 -230 0
-156 -232 0
-154 -228 0
-160 -228 0
-162 -232 0
-157 -248 0
-162 -251 0
-160 -250 0
-160 -251 0
-159 -245 0
-162 -248 0
-158 -251 0
-154 -247 0
-155 -244 0
-158 -247 0
-158 -246 0
-154 -252 0
-159 -247 0
-161 -249 0
-160 -246 0
-158 -245 0
-158 -244 0
-159 -252 0
-161 -245 0
-158 -252 0
-161 -251 0
-162 -249 0
-162 -247 0
-155 -246 0
-175 -216 0
-175 -213 0
-173 -215 0
-174 -208 0
-178 -210 0
-180 -212 0
-175 -214 0
-174 -214 0
-175 -215 0
-172 -216 0
-177 -211 0
-173 -209 0
-180 -215 0
-179 -216 0
-176 -214 0
-175 -209 0
-180 -211 0
-178 -208 0
-175 -208 0
-179 -208 0
-177 -210 0
-175 -212 0
-177 -212 0
-173 -213 0
-174 -244 0
-177 -248 0
-180 -250 0
-177 -252 0
-174 -245 0
-177 -244 0
-177 -245 0
-178 -244 0
-174 -246 0
-176 -245 0
-172 -248 0
-178 -245 0
-173 -251 0
-173 -250 0
-180 -252 0
-173 -252 0
-172 -247 0
-180 -248 0
-179 -244 0
-177 -246 0
-172 -250 0
-180 -251 0
-178 -250 0
-180 -247 0
-185 -194 0
-183 -195 0
-181 -193 0
-186 -195 0
-186 -193 0
-184 -196 0
-188 -196 0
-186 -190 0
-187 -191 0
-186 -197 0
-186 -192 0
-184 -192 0
-189 -194 0
-182 -196 0
-183 -198 0
-187 -192 0
-189 -193 0
-185 -196 0
-186 -196 0
-182 -195 0
-181 -197 0
-181 -196 0
-184 -193 0
-183 -191 0
-201 -267 0
-203 -264 0
-200 -270 0
-201 -269 0
-202 -266 0
-204 -264 0
-206 -269 0
-199 -263 0
-200 -263 0
-200 -264 0
-205 -263 0
-200 -266 0
-200 -268 0
-206 -270 0
-206 -267 0
-205 -270 0
-205 -262 0
-200 -265 0
-207 -265 0
-202 -264 0
-203 -262 0
-201 -270 0
-203 -263 0
-199 -262 0
-199 -273 0
-206 -275 0
-207 -275 0
-201 -275 0
-205 -275 0
-206 -271 0
-199 -271 0
-200 -275 0
-206 -278 0
-207 -273 0
-203 -279 0
-199 -279 0
-203 -274 0
-202 -275 0
-202 -279 0
-200 -279 0
-200 -276 0
-206 -279 0
-200 -277 0
-207 -278 0
-205 -277 0
-204 -275 0
-203 -272 0
-205 -272 0
-213 -270 0
-209 -269 0
-213 -265 0
-216 -262 0
-210 -268 0
-210 -266 0
-215 -267 0
-216 -266 0
-212 -269 0
-216 -267 0
-212 -263 0
-215 -268 0
-215 -263 0
-216 -269 0
-216 -268 0
-212 -267 0
-213 -268 0
-213 -263 0
-209 -268 0
-211 -264 0
-210 -267 0
-214 -268 0
-210 -264 0
-208 -262 0
-220 -261 0
-223 -253 0
-222 -261 0
-219 -253 0
-225 -257 0
-225 -258 0
-220 -253 0
-217 -261 0
-225 -256 0
-223 -258 0
-219 -257 0
-224 -254 0
-223 -256 0
-220 -254 0
-222 -253 0
-225 -259 0
-222 -255 0
-220 -255 0
-224 -255 0
-217 -257 0
-217 -256 0
-218 -260 0
-217 -254 0
-222 -258 0
-223 -272 0
-224 -271 0
-222 -275 0
-222 -277 0
-217 -272 0
-220 -275 0
-224 -278 0
-219 -273 0
-221 -277 0
-223 -278 0
-224 -272 0
-219 -271 0
-217 -276 0
-224 -275 0
-218 -272 0
-222 -278 0
-225 -271 0
-221 -274 0
-217 -275 0
-220 -278 0
-221 -275 0
-224 -274 0
-221 -273 0
-218 -274 0
-243 -275 0
-236 -277 0
-235 -273 0
-239 -277 0
-238 -272 0
-237 -277 0
-235 -274 0
-239 -271 0
-242 -274 0
-238 -274 0
-240 -274 0
-240 -279 0
-237 -275 0
-239 -278 0
-243 -274 0
-236 -275 0
-239 -272 0
-241 -277 0
-235 -278 0
-237 -278 0
-238 -273 0
-235 -272 0
-236 -271 0
-240 -277 0
-250 -314 0
-246 -308 0
-251 -312 0
-247 -312 0
-251 -307 0
-248 -313 0
-249 -307 0
-249 -312 0
-247 -308 0
-251 -309 0
-246 -313 0
-248 -310 0
-244 -307 0
-246 -311 0
-251 -308 0
-246 -314 0
-252 -315 0
-244 -311 0
-252 -309 0
-247 -315 0
-248 -315 0
-250 -310 0
-250 -315 0
-247 -314 0
-258 -297 0
-258 -293 0
-258 -289 0
-260 -294 0
-259 -296 0
-261 -295 0
-255 -291 0
-254 -290 0
-261 -293 0
-260 -295 0
-257 -294 0
-256 -296 0
-254 -294 0
-254 -291 0
-253 -295 0
-253 -289 0
-260 -289 0
-254 -292 0
-260 -296 0
-257 -290 0
-257 -295 0
-259 -295 0
-257 -297 0
-255 -292 0
-263 -311 0
-266 -313 0
-268 -307 0
-267 -314 0
-265 -309 0
-269 -312 0
-270 -310 0
-269 -315 0
-268 -315 0
-265 -307 0
-265 -310 0
-262 -307 0
-269 -307 0
-267 -308 0
-267 -309 0
-266 -312 0
-264 -307 0
-268 -314 0
-264 -308 0
-264 -313 0
-268 -313 0
-267 -313 0
-269 -308 0
-262 -308 0
